$ LBS instance with n = 52, seed = 19
letting cards be [25,48,8,2,26,16,40,0,14,6,38,27,23,17,30,51,50,34,9,1,4,32,10,28,12,41,49,18,39,24,21,45,35,7,44,13,15,31,22,5,33,43,20,11,46,42,37,29,19,36,3,47]
